NAME: tsp40_27
COMMENT: 40-tsp problem (Padberg/Rinaldi)
TYPE: TSP
DIMENSION: 40
EDGE_WEIGHT_TYPE : EUC_2D
NODE_COORD_SECTION
1 34 33
2 36 19
3 33 4
4 12 38
5 32 33
6 27 9
7 3 6
8 4 39
9 6 19
10 3 33
11 22 0
12 36 4
13 34 18
14 23 31
15 11 8
16 23 5
17 36 36
18 13 20
19 16 21
20 19 40
21 30 35
22 36 23
23 37 3
24 4 7
25 3 3
26 15 30
27 20 39
28 34 13
29 20 14
30 25 19
31 38 3
32 36 18
33 5 31
34 35 24
35 34 5
36 27 25
37 23 35
38 15 26
39 3 21
40 8 1
